p cnf 38 20
13 13 0
-10 -5 0
5 -5 0
19 -1 0
7 -7 0
7 -9 0
-14 -19 0
-10 18 0
15 -16 0
-7 -14 0
-3 11 0
-4 -3 0
9 -3 0
3 -19 0
2 11 0
-20 -8 0
-20 10 0
8 6 0
14 6 0
16 20 0
-4 -9 0
2 11 0
6 -11 0
-6 10 0
18 -9 0
6 -4 0
11 12 0
12 -3 0
17 1 0
-4 -17 0
19 -3 0
-11 11 0
11 -1 0
-14 9 0
-9 -18 0
-8 -12 0
-7 3 0
5 -17 0
